certificates/rado_a11_c69_N25.cnf
c Rad2 upper bound instance: x1 + 11*x2 - x3 = 69, interval [1,25]
p cnf 25 112
1 7 9 0
-1 -7 -9 0
1 8 20 0
-1 -8 -20 0
2 7 10 0
-2 -7 -10 0
2 8 21 0
-2 -8 -21 0
3 7 11 0
-3 -7 -11 0
3 8 22 0
-3 -8 -22 0
1 4 6 0
-1 -4 -6 0
4 7 12 0
-4 -7 -12 0
4 8 23 0
-4 -8 -23 0
2 5 6 0
-2 -5 -6 0
5 7 13 0
-5 -7 -13 0
5 8 24 0
-5 -8 -24 0
3 6 0
-3 -6 0
6 7 14 0
-6 -7 -14 0
6 8 25 0
-6 -8 -25 0
4 6 7 0
-4 -6 -7 0
7 15 0
-7 -15 0
5 6 8 0
-5 -6 -8 0
7 8 16 0
-7 -8 -16 0
6 9 0
-6 -9 0
7 9 17 0
-7 -9 -17 0
6 7 10 0
-6 -7 -10 0
7 10 18 0
-7 -10 -18 0
6 8 11 0
-6 -8 -11 0
7 11 19 0
-7 -11 -19 0
6 9 12 0
-6 -9 -12 0
7 12 20 0
-7 -12 -20 0
6 10 13 0
-6 -10 -13 0
7 13 21 0
-7 -13 -21 0
6 11 14 0
-6 -11 -14 0
7 14 22 0
-7 -14 -22 0
1 5 15 0
-1 -5 -15 0
6 12 15 0
-6 -12 -15 0
7 15 23 0
-7 -15 -23 0
2 5 16 0
-2 -5 -16 0
6 13 16 0
-6 -13 -16 0
7 16 24 0
-7 -16 -24 0
3 5 17 0
-3 -5 -17 0
6 14 17 0
-6 -14 -17 0
7 17 25 0
-7 -17 -25 0
4 5 18 0
-4 -5 -18 0
6 15 18 0
-6 -15 -18 0
5 19 0
-5 -19 0
6 16 19 0
-6 -16 -19 0
5 6 20 0
-5 -6 -20 0
6 17 20 0
-6 -17 -20 0
5 7 21 0
-5 -7 -21 0
6 18 21 0
-6 -18 -21 0
5 8 22 0
-5 -8 -22 0
6 19 22 0
-6 -19 -22 0
5 9 23 0
-5 -9 -23 0
6 20 23 0
-6 -20 -23 0
5 10 24 0
-5 -10 -24 0
6 21 24 0
-6 -21 -24 0
5 11 25 0
-5 -11 -25 0
6 22 25 0
-6 -22 -25 0
