certificates/rado_a11_c69_N25.drat
-22 -23 -25 0
-9 -23 0
-23 -25 0
d -22 -23 -25 0
-6 -25 0
8 -25 0
5 -25 0
-25 0
6 -8 0
-6 -8 0
d -11 -6 -8 0
-8 0
6 0
-3 0
-9 0
22 0
-19 0
5 0
-2 0
-20 0
21 0
1 0
-24 0
-18 0
-7 0
-4 0
-15 0
10 0
11 0
0
